15 = ndim
12 = nblocks
7 6 1 1 1 1 1 1 1 1 1 1 = blockstruct
1.0, 0.0, 0.0, 0.0, 0.0, 0.0, 0.0, 0.0, 0.0, 0.0, 0.0, 0.0, 0.0, 0.0, 0.0 = objcoeffs
0 1 1 1 0.34506009638188306
0 1 1 2 -1.0798190002336228
0 1 1 3 -0.49419303390960423
0 1 1 4 -0.2087750104123894
0 1 1 5 13.837394196567706
0 1 1 6 1.1171900019384269
0 1 1 7 0.006047469658029769
0 1 2 2 -1.0
0 1 3 3 -1.0
0 1 4 4 -1.0
0 1 5 5 -1.0
0 1 6 6 -1.0
0 1 7 7 -1.0
0 2 1 1 1e-06
0 2 2 2 1e-06
0 2 3 3 1e-06
0 2 4 4 1e-06
0 2 5 5 1e-06
0 2 6 6 1e-06
0 3 1 1 1e-06
0 4 1 1 1e-06
0 5 1 1 1e-06
0 6 1 1 1e-06
0 7 1 1 1e-06
0 8 1 1 1e-06
0 9 1 1 1e-06
0 10 1 1 1e-06
0 11 1 1 1e-06
0 12 1 1 -0.099999
1 1 1 1 1.0
2 1 1 2 -39.92154025055481
2 2 3 3 1.0
3 1 1 2 -14.838979693389918
3 1 1 3 -172.7871274574322
3 2 2 6 1.0
3 2 3 5 -1.0
3 6 1 1 1.0
3 7 1 1 -1.0
4 1 1 2 159.0317329323147
4 1 1 3 -36.45111992261897
4 1 1 4 123.81970651675675
4 2 1 6 -1.0
4 2 3 4 1.0
4 8 1 1 1.0
4 9 1 1 -1.0
5 1 1 2 -0.13183359580450038
5 1 1 3 -0.5291377814830687
5 1 1 4 -0.4204307418128595
5 1 1 5 28.846186252512922
5 4 1 1 1.0
6 1 1 2 -0.07949930516286924
6 1 1 3 -4.1267899430865835
6 1 1 4 -0.4682106131567282
6 1 1 5 22.57909602425519
6 1 1 6 14.878364925714246
6 5 1 1 1.0
7 1 1 2 -0.08306053843853439
7 1 1 3 24.32840120891176
7 1 1 4 -4.172872040523823
7 1 1 5 -0.005470878658848238
7 1 1 6 0.60356426774358
7 1 1 7 11.780580267125842
8 2 1 1 1.0
9 2 1 2 1.0
10 2 1 3 1.0
11 2 2 2 1.0
12 2 2 3 1.0
13 2 1 5 1.0
13 2 2 4 -1.0
13 10 1 1 1.0
13 11 1 1 -1.0
14 2 4 4 1.0
14 2 5 5 1.0
14 2 6 6 1.0
14 6 1 1 0.01
14 7 1 1 0.01
14 8 1 1 0.2
14 9 1 1 0.02
14 10 1 1 0.01
14 11 1 1 0.01
14 12 1 1 -1.0
15 2 3 3 -1.0
15 3 1 1 1.0
